PatchBench/BenchmarksExist/FFmpeg/CWE-189-Numeric-Errors/CVE_2015_5479_0a49a62f998747cfa564d98d36a459fe70d3299b/ff_h263_decode_picture_header_SnippetExist32.smt2
; benchmark generated from python API
(set-info :status unknown)
(declare-fun rdi () (_ BitVec 64))
(declare-fun rsi () (_ BitVec 64))
(assert
 (let ((?x9 ((_ extract 31 0) rdi)))
 (let (($x259 (bvsle ?x9 (_ bv0 32))))
 (let (($x260 (not $x259)))
 (let ((?x15 ((_ extract 31 0) rsi)))
 (let (($x257 (bvsle ?x15 (_ bv0 32))))
 (let (($x258 (not $x257)))
 (let (($x295 (bvule (bvmul (bvadd (_ bv128 28) ((_ extract 27 0) rdi)) (bvadd (_ bv128 28) ((_ extract 27 0) rsi))) (_ bv268435454 28))))
 (let ((?x218 (bvadd (_ bv128 32) ?x15)))
 (let ((?x219 (concat (_ bv0 32) ?x218)))
 (let ((?x215 (bvadd (_ bv128 32) ?x9)))
 (let ((?x216 (concat (_ bv0 32) ?x215)))
 (let ((?x220 (bvmul ?x216 ?x219)))
 (let (($x228 (= ((_ extract 63 28) ?x220) (_ bv0 36))))
 (let ((?x19 (bvadd (_ bv30 32) ?x15)))
 (let ((?x21 (bvadd (_ bv15 32) ?x15)))
 (let ((?x22 ((_ extract 31 31) ?x21)))
 (let (($x173 (= ?x22 (_ bv0 1))))
 (let ((?x26 ((_ extract 31 31) ?x19)))
 (let ((?x174 (ite $x173 ?x22 ?x26)))
 (let ((?x206 (concat ?x174 ?x174 ?x174 ?x174 ?x174 ?x174 ?x174 ?x174 ?x174 ?x174 ?x174 ?x174 ?x174 ?x174 ?x174 ?x174 ?x174 ?x174 ?x174 ?x174 ?x174 ?x174 ?x174 ?x174 ?x174 ?x174 ?x174 ?x174 ?x174 ?x174 ?x174 ?x174 (ite $x173 ?x21 ?x19))))
 (let ((?x63 (bvadd (_ bv30 32) ?x9)))
 (let ((?x64 (bvadd (_ bv15 32) ?x9)))
 (let ((?x65 ((_ extract 31 31) ?x64)))
 (let (($x137 (= ?x65 (_ bv0 1))))
 (let ((?x68 ((_ extract 31 31) ?x63)))
 (let ((?x138 (ite $x137 ?x65 ?x68)))
 (let ((?x170 (concat ?x138 ?x138 ?x138 ?x138 ?x138 ?x138 ?x138 ?x138 ?x138 ?x138 ?x138 ?x138 ?x138 ?x138 ?x138 ?x138 ?x138 ?x138 ?x138 ?x138 ?x138 ?x138 ?x138 ?x138 ?x138 ?x138 ?x138 ?x138 ?x138 ?x138 ?x138 ?x138 (ite $x137 ?x64 ?x63))))
 (let ((?x209 (bvmul ((_ extract 31 0) (bvashr ?x170 (_ bv4 64))) ((_ extract 31 0) (bvashr ?x206 (_ bv4 64))))))
 (let (($x16099 (= ?x209 (_ bv4294967274 32))))
 (let (($x16093 (and $x257 $x260 $x16099)))
 (let (($x16092 (and $x259 $x16099)))
 (let (($x16103 (or $x16092 $x16093 (and (not (and $x228 $x295)) $x258 $x260 $x16099) (and $x228 $x295 $x258 $x260))))
 (and $x16103))))))))))))))))))))))))))))))))))
(check-sat)
